benchmark/results/graph__10-1000-0.10-02_15/graph__10-1000-0.10-02_15_Quinton_Monolithic.lp
\ This file has been generated by DOcplex
\ ENCODING=ISO-8859-1
\Problem name: Quinton Monolithic

Maximize
 obj: tau
Subject To
 c1: tau - 0.000881834215 m_a0_proc_0 - 0.000868809731 m_a0_proc_1 <= 0
 c2: y_a0_proc_0 + y_a0_proc_1 - tau = 0
 c3: m_a0_proc_0 + m_a0_proc_1 = 1
 c4: y_a0_proc_0 - m_a0_proc_0 <= 0
 c5: y_a0_proc_0 >= 0
 c6: y_a0_proc_1 - m_a0_proc_1 <= 0
 c7: y_a0_proc_1 >= 0
 c8: tau - 0.000906618314 m_a1_proc_0 - 0.000919117647 m_a1_proc_1 <= 0
 c9: y_a1_proc_0 + y_a1_proc_1 - tau = 0
 c10: m_a1_proc_0 + m_a1_proc_1 = 1
 c11: y_a1_proc_0 - m_a1_proc_0 <= 0
 c12: y_a1_proc_0 >= 0
 c13: y_a1_proc_1 - m_a1_proc_1 <= 0
 c14: y_a1_proc_1 >= 0
 c15: tau - 0.000962463908 m_a2_proc_0 - 0.001270648030 m_a2_proc_1 <= 0
 c16: y_a2_proc_0 + y_a2_proc_1 - tau = 0
 c17: m_a2_proc_0 + m_a2_proc_1 = 1
 c18: y_a2_proc_0 - m_a2_proc_0 <= 0
 c19: y_a2_proc_0 >= 0
 c20: y_a2_proc_1 - m_a2_proc_1 <= 0
 c21: y_a2_proc_1 >= 0
 c22: tau - 0.000924214418 m_a3_proc_0 <= 0
 c23: y_a3_proc_0 - tau = 0
 c24: m_a3_proc_0 = 1
 c25: y_a3_proc_0 - m_a3_proc_0 <= 0
 c26: y_a3_proc_0 >= 0
 c27: tau - 0.001420454545 m_a4_proc_0 <= 0
 c28: y_a4_proc_0 - tau = 0
 c29: m_a4_proc_0 = 1
 c30: y_a4_proc_0 - m_a4_proc_0 <= 0
 c31: y_a4_proc_0 >= 0
 c32: tau - 0.002123142251 m_a5_proc_0 - 0.000813669650 m_a5_proc_1 <= 0
 c33: y_a5_proc_0 + y_a5_proc_1 - tau = 0
 c34: m_a5_proc_0 + m_a5_proc_1 = 1
 c35: y_a5_proc_0 - m_a5_proc_0 <= 0
 c36: y_a5_proc_0 >= 0
 c37: y_a5_proc_1 - m_a5_proc_1 <= 0
 c38: y_a5_proc_1 >= 0
 c39: tau - 0.001663893511 m_a6_proc_0 <= 0
 c40: y_a6_proc_0 - tau = 0
 c41: m_a6_proc_0 = 1
 c42: y_a6_proc_0 - m_a6_proc_0 <= 0
 c43: y_a6_proc_0 >= 0
 c44: tau - 0.001278772379 m_a7_proc_0 <= 0
 c45: y_a7_proc_0 - tau = 0
 c46: m_a7_proc_0 = 1
 c47: y_a7_proc_0 - m_a7_proc_0 <= 0
 c48: y_a7_proc_0 >= 0
 c49: tau - 0.001015228426 m_a8_proc_0 <= 0
 c50: y_a8_proc_0 - tau = 0
 c51: m_a8_proc_0 = 1
 c52: y_a8_proc_0 - m_a8_proc_0 <= 0
 c53: y_a8_proc_0 >= 0
 c54: tau - 0.000866551127 m_a9_proc_0 - 0.001038421599 m_a9_proc_1 <= 0
 c55: y_a9_proc_0 + y_a9_proc_1 - tau = 0
 c56: m_a9_proc_0 + m_a9_proc_1 = 1
 c57: y_a9_proc_0 - m_a9_proc_0 <= 0
 c58: y_a9_proc_0 >= 0
 c59: y_a9_proc_1 - m_a9_proc_1 <= 0
 c60: y_a9_proc_1 >= 0
 c61: u_a1 - u_a0 - 1134 y_a0_proc_0 - 1151 y_a0_proc_1 >= 0
 c62: u_a2 - u_a1 - 1103 y_a1_proc_0 - 1088 y_a1_proc_1 >= -1
 c63: u_a1 - u_a3 - 1082 y_a3_proc_0 >= 0
 c64: u_a3 - u_a4 - 704 y_a4_proc_0 >= 0
 c65: u_a5 - u_a1 - 1103 y_a1_proc_0 - 1088 y_a1_proc_1 >= -1
 c66: u_a4 - u_a6 - 601 y_a6_proc_0 >= 0
 c67: u_a7 - u_a0 - 1134 y_a0_proc_0 - 1151 y_a0_proc_1 >= 0
 c68: u_a3 - u_a8 - 985 y_a8_proc_0 >= 0
 c69: u_a7 - u_a9 - 1154 y_a9_proc_0 - 963 y_a9_proc_1 >= 0
 c70: u_a4 - u_a2 - 1039 y_a2_proc_0 - 787 y_a2_proc_1 >= 0
 c71: u_a9 - u_a1 - 1103 y_a1_proc_0 - 1088 y_a1_proc_1 >= -2
 c72: u_a0 - u_a5 - 471 y_a5_proc_0 - 1229 y_a5_proc_1 >= 0
 c73: u_a3 - u_a2 - 1039 y_a2_proc_0 - 787 y_a2_proc_1 >= 0
 c74: u_a9 - u_a7 - 782 y_a7_proc_0 >= -1
 c75: u_a1 - u_a7 - 782 y_a7_proc_0 >= 0
 c76: u_a9 - u_a2 - 1039 y_a2_proc_0 - 787 y_a2_proc_1 >= -1
 c77: u_a1 + K_a0_a1 - 1229 m_a0_proc_0 - 1229 m_a1_proc_0 - u_a0
      - 1134 y_a0_proc_0 >= -2458
 c78: u_a1 + K_a0_a1 - 1229 m_a0_proc_1 - 1229 m_a1_proc_1 - u_a0
      - 1151 y_a0_proc_1 >= -2458
 c79: K_a0_a1 + K_a1_a0 = 1
 c80: u_a0 + K_a1_a0 - 1229 m_a0_proc_0 - 1229 m_a1_proc_0 - u_a1
      - 1103 y_a1_proc_0 >= -2458
 c81: u_a0 + K_a1_a0 - 1229 m_a0_proc_1 - 1229 m_a1_proc_1 - u_a1
      - 1088 y_a1_proc_1 >= -2458
 c82: K_a0_a1 + K_a1_a0 = 1
 c83: u_a2 + K_a0_a2 - 1229 m_a0_proc_0 - 1229 m_a2_proc_0 - u_a0
      - 1134 y_a0_proc_0 >= -2458
 c84: u_a2 + K_a0_a2 - 1229 m_a0_proc_1 - 1229 m_a2_proc_1 - u_a0
      - 1151 y_a0_proc_1 >= -2458
 c85: K_a0_a2 + K_a2_a0 = 1
 c86: u_a0 + K_a2_a0 - 1229 m_a0_proc_0 - 1229 m_a2_proc_0 - u_a2
      - 1039 y_a2_proc_0 >= -2458
 c87: u_a0 + K_a2_a0 - 1229 m_a0_proc_1 - 1229 m_a2_proc_1 - u_a2
      - 787 y_a2_proc_1 >= -2458
 c88: K_a0_a2 + K_a2_a0 = 1
 c89: u_a3 + K_a0_a3 - 1229 m_a0_proc_0 - 1229 m_a3_proc_0 - u_a0
      - 1134 y_a0_proc_0 >= -2458
 c90: K_a0_a3 + K_a3_a0 = 1
 c91: u_a0 + K_a3_a0 - 1229 m_a0_proc_0 - 1229 m_a3_proc_0 - u_a3
      - 1082 y_a3_proc_0 >= -2458
 c92: K_a0_a3 + K_a3_a0 = 1
 c93: u_a4 + K_a0_a4 - 1229 m_a0_proc_0 - 1229 m_a4_proc_0 - u_a0
      - 1134 y_a0_proc_0 >= -2458
 c94: K_a0_a4 + K_a4_a0 = 1
 c95: u_a0 + K_a4_a0 - 1229 m_a0_proc_0 - 1229 m_a4_proc_0 - u_a4
      - 704 y_a4_proc_0 >= -2458
 c96: K_a0_a4 + K_a4_a0 = 1
 c97: u_a5 + K_a0_a5 - 1229 m_a0_proc_0 - 1229 m_a5_proc_0 - u_a0
      - 1134 y_a0_proc_0 >= -2458
 c98: u_a5 + K_a0_a5 - 1229 m_a0_proc_1 - 1229 m_a5_proc_1 - u_a0
      - 1151 y_a0_proc_1 >= -2458
 c99: K_a0_a5 + K_a5_a0 = 1
 c100: u_a0 + K_a5_a0 - 1229 m_a0_proc_0 - 1229 m_a5_proc_0 - u_a5
       - 471 y_a5_proc_0 >= -2458
 c101: u_a0 + K_a5_a0 - 1229 m_a0_proc_1 - 1229 m_a5_proc_1 - u_a5
       - 1229 y_a5_proc_1 >= -2458
 c102: K_a0_a5 + K_a5_a0 = 1
 c103: u_a6 + K_a0_a6 - 1229 m_a0_proc_0 - 1229 m_a6_proc_0 - u_a0
       - 1134 y_a0_proc_0 >= -2458
 c104: K_a0_a6 + K_a6_a0 = 1
 c105: u_a0 + K_a6_a0 - 1229 m_a0_proc_0 - 1229 m_a6_proc_0 - u_a6
       - 601 y_a6_proc_0 >= -2458
 c106: K_a0_a6 + K_a6_a0 = 1
 c107: u_a7 + K_a0_a7 - 1229 m_a0_proc_0 - 1229 m_a7_proc_0 - u_a0
       - 1134 y_a0_proc_0 >= -2458
 c108: K_a0_a7 + K_a7_a0 = 1
 c109: u_a0 + K_a7_a0 - 1229 m_a0_proc_0 - 1229 m_a7_proc_0 - u_a7
       - 782 y_a7_proc_0 >= -2458
 c110: K_a0_a7 + K_a7_a0 = 1
 c111: u_a8 + K_a0_a8 - 1229 m_a0_proc_0 - 1229 m_a8_proc_0 - u_a0
       - 1134 y_a0_proc_0 >= -2458
 c112: K_a0_a8 + K_a8_a0 = 1
 c113: u_a0 + K_a8_a0 - 1229 m_a0_proc_0 - 1229 m_a8_proc_0 - u_a8
       - 985 y_a8_proc_0 >= -2458
 c114: K_a0_a8 + K_a8_a0 = 1
 c115: u_a9 + K_a0_a9 - 1229 m_a0_proc_0 - 1229 m_a9_proc_0 - u_a0
       - 1134 y_a0_proc_0 >= -2458
 c116: u_a9 + K_a0_a9 - 1229 m_a0_proc_1 - 1229 m_a9_proc_1 - u_a0
       - 1151 y_a0_proc_1 >= -2458
 c117: K_a0_a9 + K_a9_a0 = 1
 c118: u_a0 + K_a9_a0 - 1229 m_a0_proc_0 - 1229 m_a9_proc_0 - u_a9
       - 1154 y_a9_proc_0 >= -2458
 c119: u_a0 + K_a9_a0 - 1229 m_a0_proc_1 - 1229 m_a9_proc_1 - u_a9
       - 963 y_a9_proc_1 >= -2458
 c120: K_a0_a9 + K_a9_a0 = 1
 c121: u_a2 + K_a1_a2 - 1229 m_a1_proc_0 - 1229 m_a2_proc_0 - u_a1
       - 1103 y_a1_proc_0 >= -2458
 c122: u_a2 + K_a1_a2 - 1229 m_a1_proc_1 - 1229 m_a2_proc_1 - u_a1
       - 1088 y_a1_proc_1 >= -2458
 c123: K_a1_a2 + K_a2_a1 = 1
 c124: u_a1 + K_a2_a1 - 1229 m_a1_proc_0 - 1229 m_a2_proc_0 - u_a2
       - 1039 y_a2_proc_0 >= -2458
 c125: u_a1 + K_a2_a1 - 1229 m_a1_proc_1 - 1229 m_a2_proc_1 - u_a2
       - 787 y_a2_proc_1 >= -2458
 c126: K_a1_a2 + K_a2_a1 = 1
 c127: u_a3 + K_a1_a3 - 1229 m_a1_proc_0 - 1229 m_a3_proc_0 - u_a1
       - 1103 y_a1_proc_0 >= -2458
 c128: K_a1_a3 + K_a3_a1 = 1
 c129: u_a1 + K_a3_a1 - 1229 m_a1_proc_0 - 1229 m_a3_proc_0 - u_a3
       - 1082 y_a3_proc_0 >= -2458
 c130: K_a1_a3 + K_a3_a1 = 1
 c131: u_a4 + K_a1_a4 - 1229 m_a1_proc_0 - 1229 m_a4_proc_0 - u_a1
       - 1103 y_a1_proc_0 >= -2458
 c132: K_a1_a4 + K_a4_a1 = 1
 c133: u_a1 + K_a4_a1 - 1229 m_a1_proc_0 - 1229 m_a4_proc_0 - u_a4
       - 704 y_a4_proc_0 >= -2458
 c134: K_a1_a4 + K_a4_a1 = 1
 c135: u_a5 + K_a1_a5 - 1229 m_a1_proc_0 - 1229 m_a5_proc_0 - u_a1
       - 1103 y_a1_proc_0 >= -2458
 c136: u_a5 + K_a1_a5 - 1229 m_a1_proc_1 - 1229 m_a5_proc_1 - u_a1
       - 1088 y_a1_proc_1 >= -2458
 c137: K_a1_a5 + K_a5_a1 = 1
 c138: u_a1 + K_a5_a1 - 1229 m_a1_proc_0 - 1229 m_a5_proc_0 - u_a5
       - 471 y_a5_proc_0 >= -2458
 c139: u_a1 + K_a5_a1 - 1229 m_a1_proc_1 - 1229 m_a5_proc_1 - u_a5
       - 1229 y_a5_proc_1 >= -2458
 c140: K_a1_a5 + K_a5_a1 = 1
 c141: u_a6 + K_a1_a6 - 1229 m_a1_proc_0 - 1229 m_a6_proc_0 - u_a1
       - 1103 y_a1_proc_0 >= -2458
 c142: K_a1_a6 + K_a6_a1 = 1
 c143: u_a1 + K_a6_a1 - 1229 m_a1_proc_0 - 1229 m_a6_proc_0 - u_a6
       - 601 y_a6_proc_0 >= -2458
 c144: K_a1_a6 + K_a6_a1 = 1
 c145: u_a7 + K_a1_a7 - 1229 m_a1_proc_0 - 1229 m_a7_proc_0 - u_a1
       - 1103 y_a1_proc_0 >= -2458
 c146: K_a1_a7 + K_a7_a1 = 1
 c147: u_a1 + K_a7_a1 - 1229 m_a1_proc_0 - 1229 m_a7_proc_0 - u_a7
       - 782 y_a7_proc_0 >= -2458
 c148: K_a1_a7 + K_a7_a1 = 1
 c149: u_a8 + K_a1_a8 - 1229 m_a1_proc_0 - 1229 m_a8_proc_0 - u_a1
       - 1103 y_a1_proc_0 >= -2458
 c150: K_a1_a8 + K_a8_a1 = 1
 c151: u_a1 + K_a8_a1 - 1229 m_a1_proc_0 - 1229 m_a8_proc_0 - u_a8
       - 985 y_a8_proc_0 >= -2458
 c152: K_a1_a8 + K_a8_a1 = 1
 c153: u_a9 + K_a1_a9 - 1229 m_a1_proc_0 - 1229 m_a9_proc_0 - u_a1
       - 1103 y_a1_proc_0 >= -2458
 c154: u_a9 + K_a1_a9 - 1229 m_a1_proc_1 - 1229 m_a9_proc_1 - u_a1
       - 1088 y_a1_proc_1 >= -2458
 c155: K_a1_a9 + K_a9_a1 = 1
 c156: u_a1 + K_a9_a1 - 1229 m_a1_proc_0 - 1229 m_a9_proc_0 - u_a9
       - 1154 y_a9_proc_0 >= -2458
 c157: u_a1 + K_a9_a1 - 1229 m_a1_proc_1 - 1229 m_a9_proc_1 - u_a9
       - 963 y_a9_proc_1 >= -2458
 c158: K_a1_a9 + K_a9_a1 = 1
 c159: u_a3 + K_a2_a3 - 1229 m_a2_proc_0 - 1229 m_a3_proc_0 - u_a2
       - 1039 y_a2_proc_0 >= -2458
 c160: K_a2_a3 + K_a3_a2 = 1
 c161: u_a2 + K_a3_a2 - 1229 m_a2_proc_0 - 1229 m_a3_proc_0 - u_a3
       - 1082 y_a3_proc_0 >= -2458
 c162: K_a2_a3 + K_a3_a2 = 1
 c163: u_a4 + K_a2_a4 - 1229 m_a2_proc_0 - 1229 m_a4_proc_0 - u_a2
       - 1039 y_a2_proc_0 >= -2458
 c164: K_a2_a4 + K_a4_a2 = 1
 c165: u_a2 + K_a4_a2 - 1229 m_a2_proc_0 - 1229 m_a4_proc_0 - u_a4
       - 704 y_a4_proc_0 >= -2458
 c166: K_a2_a4 + K_a4_a2 = 1
 c167: u_a5 + K_a2_a5 - 1229 m_a2_proc_0 - 1229 m_a5_proc_0 - u_a2
       - 1039 y_a2_proc_0 >= -2458
 c168: u_a5 + K_a2_a5 - 1229 m_a2_proc_1 - 1229 m_a5_proc_1 - u_a2
       - 787 y_a2_proc_1 >= -2458
 c169: K_a2_a5 + K_a5_a2 = 1
 c170: u_a2 + K_a5_a2 - 1229 m_a2_proc_0 - 1229 m_a5_proc_0 - u_a5
       - 471 y_a5_proc_0 >= -2458
 c171: u_a2 + K_a5_a2 - 1229 m_a2_proc_1 - 1229 m_a5_proc_1 - u_a5
       - 1229 y_a5_proc_1 >= -2458
 c172: K_a2_a5 + K_a5_a2 = 1
 c173: u_a6 + K_a2_a6 - 1229 m_a2_proc_0 - 1229 m_a6_proc_0 - u_a2
       - 1039 y_a2_proc_0 >= -2458
 c174: K_a2_a6 + K_a6_a2 = 1
 c175: u_a2 + K_a6_a2 - 1229 m_a2_proc_0 - 1229 m_a6_proc_0 - u_a6
       - 601 y_a6_proc_0 >= -2458
 c176: K_a2_a6 + K_a6_a2 = 1
 c177: u_a7 + K_a2_a7 - 1229 m_a2_proc_0 - 1229 m_a7_proc_0 - u_a2
       - 1039 y_a2_proc_0 >= -2458
 c178: K_a2_a7 + K_a7_a2 = 1
 c179: u_a2 + K_a7_a2 - 1229 m_a2_proc_0 - 1229 m_a7_proc_0 - u_a7
       - 782 y_a7_proc_0 >= -2458
 c180: K_a2_a7 + K_a7_a2 = 1
 c181: u_a8 + K_a2_a8 - 1229 m_a2_proc_0 - 1229 m_a8_proc_0 - u_a2
       - 1039 y_a2_proc_0 >= -2458
 c182: K_a2_a8 + K_a8_a2 = 1
 c183: u_a2 + K_a8_a2 - 1229 m_a2_proc_0 - 1229 m_a8_proc_0 - u_a8
       - 985 y_a8_proc_0 >= -2458
 c184: K_a2_a8 + K_a8_a2 = 1
 c185: u_a9 + K_a2_a9 - 1229 m_a2_proc_0 - 1229 m_a9_proc_0 - u_a2
       - 1039 y_a2_proc_0 >= -2458
 c186: u_a9 + K_a2_a9 - 1229 m_a2_proc_1 - 1229 m_a9_proc_1 - u_a2
       - 787 y_a2_proc_1 >= -2458
 c187: K_a2_a9 + K_a9_a2 = 1
 c188: u_a2 + K_a9_a2 - 1229 m_a2_proc_0 - 1229 m_a9_proc_0 - u_a9
       - 1154 y_a9_proc_0 >= -2458
 c189: u_a2 + K_a9_a2 - 1229 m_a2_proc_1 - 1229 m_a9_proc_1 - u_a9
       - 963 y_a9_proc_1 >= -2458
 c190: K_a2_a9 + K_a9_a2 = 1
 c191: u_a4 + K_a3_a4 - 1229 m_a3_proc_0 - 1229 m_a4_proc_0 - u_a3
       - 1082 y_a3_proc_0 >= -2458
 c192: K_a3_a4 + K_a4_a3 = 1
 c193: u_a3 + K_a4_a3 - 1229 m_a3_proc_0 - 1229 m_a4_proc_0 - u_a4
       - 704 y_a4_proc_0 >= -2458
 c194: K_a3_a4 + K_a4_a3 = 1
 c195: u_a5 + K_a3_a5 - 1229 m_a3_proc_0 - 1229 m_a5_proc_0 - u_a3
       - 1082 y_a3_proc_0 >= -2458
 c196: K_a3_a5 + K_a5_a3 = 1
 c197: u_a3 + K_a5_a3 - 1229 m_a3_proc_0 - 1229 m_a5_proc_0 - u_a5
       - 471 y_a5_proc_0 >= -2458
 c198: K_a3_a5 + K_a5_a3 = 1
 c199: u_a6 + K_a3_a6 - 1229 m_a3_proc_0 - 1229 m_a6_proc_0 - u_a3
       - 1082 y_a3_proc_0 >= -2458
 c200: K_a3_a6 + K_a6_a3 = 1
 c201: u_a3 + K_a6_a3 - 1229 m_a3_proc_0 - 1229 m_a6_proc_0 - u_a6
       - 601 y_a6_proc_0 >= -2458
 c202: K_a3_a6 + K_a6_a3 = 1
 c203: u_a7 + K_a3_a7 - 1229 m_a3_proc_0 - 1229 m_a7_proc_0 - u_a3
       - 1082 y_a3_proc_0 >= -2458
 c204: K_a3_a7 + K_a7_a3 = 1
 c205: u_a3 + K_a7_a3 - 1229 m_a3_proc_0 - 1229 m_a7_proc_0 - u_a7
       - 782 y_a7_proc_0 >= -2458
 c206: K_a3_a7 + K_a7_a3 = 1
 c207: u_a8 + K_a3_a8 - 1229 m_a3_proc_0 - 1229 m_a8_proc_0 - u_a3
       - 1082 y_a3_proc_0 >= -2458
 c208: K_a3_a8 + K_a8_a3 = 1
 c209: u_a3 + K_a8_a3 - 1229 m_a3_proc_0 - 1229 m_a8_proc_0 - u_a8
       - 985 y_a8_proc_0 >= -2458
 c210: K_a3_a8 + K_a8_a3 = 1
 c211: u_a9 + K_a3_a9 - 1229 m_a3_proc_0 - 1229 m_a9_proc_0 - u_a3
       - 1082 y_a3_proc_0 >= -2458
 c212: K_a3_a9 + K_a9_a3 = 1
 c213: u_a3 + K_a9_a3 - 1229 m_a3_proc_0 - 1229 m_a9_proc_0 - u_a9
       - 1154 y_a9_proc_0 >= -2458
 c214: K_a3_a9 + K_a9_a3 = 1
 c215: u_a5 + K_a4_a5 - 1229 m_a4_proc_0 - 1229 m_a5_proc_0 - u_a4
       - 704 y_a4_proc_0 >= -2458
 c216: K_a4_a5 + K_a5_a4 = 1
 c217: u_a4 + K_a5_a4 - 1229 m_a4_proc_0 - 1229 m_a5_proc_0 - u_a5
       - 471 y_a5_proc_0 >= -2458
 c218: K_a4_a5 + K_a5_a4 = 1
 c219: u_a6 + K_a4_a6 - 1229 m_a4_proc_0 - 1229 m_a6_proc_0 - u_a4
       - 704 y_a4_proc_0 >= -2458
 c220: K_a4_a6 + K_a6_a4 = 1
 c221: u_a4 + K_a6_a4 - 1229 m_a4_proc_0 - 1229 m_a6_proc_0 - u_a6
       - 601 y_a6_proc_0 >= -2458
 c222: K_a4_a6 + K_a6_a4 = 1
 c223: u_a7 + K_a4_a7 - 1229 m_a4_proc_0 - 1229 m_a7_proc_0 - u_a4
       - 704 y_a4_proc_0 >= -2458
 c224: K_a4_a7 + K_a7_a4 = 1
 c225: u_a4 + K_a7_a4 - 1229 m_a4_proc_0 - 1229 m_a7_proc_0 - u_a7
       - 782 y_a7_proc_0 >= -2458
 c226: K_a4_a7 + K_a7_a4 = 1
 c227: u_a8 + K_a4_a8 - 1229 m_a4_proc_0 - 1229 m_a8_proc_0 - u_a4
       - 704 y_a4_proc_0 >= -2458
 c228: K_a4_a8 + K_a8_a4 = 1
 c229: u_a4 + K_a8_a4 - 1229 m_a4_proc_0 - 1229 m_a8_proc_0 - u_a8
       - 985 y_a8_proc_0 >= -2458
 c230: K_a4_a8 + K_a8_a4 = 1
 c231: u_a9 + K_a4_a9 - 1229 m_a4_proc_0 - 1229 m_a9_proc_0 - u_a4
       - 704 y_a4_proc_0 >= -2458
 c232: K_a4_a9 + K_a9_a4 = 1
 c233: u_a4 + K_a9_a4 - 1229 m_a4_proc_0 - 1229 m_a9_proc_0 - u_a9
       - 1154 y_a9_proc_0 >= -2458
 c234: K_a4_a9 + K_a9_a4 = 1
 c235: u_a6 + K_a5_a6 - 1229 m_a5_proc_0 - 1229 m_a6_proc_0 - u_a5
       - 471 y_a5_proc_0 >= -2458
 c236: K_a5_a6 + K_a6_a5 = 1
 c237: u_a5 + K_a6_a5 - 1229 m_a5_proc_0 - 1229 m_a6_proc_0 - u_a6
       - 601 y_a6_proc_0 >= -2458
 c238: K_a5_a6 + K_a6_a5 = 1
 c239: u_a7 + K_a5_a7 - 1229 m_a5_proc_0 - 1229 m_a7_proc_0 - u_a5
       - 471 y_a5_proc_0 >= -2458
 c240: K_a5_a7 + K_a7_a5 = 1
 c241: u_a5 + K_a7_a5 - 1229 m_a5_proc_0 - 1229 m_a7_proc_0 - u_a7
       - 782 y_a7_proc_0 >= -2458
 c242: K_a5_a7 + K_a7_a5 = 1
 c243: u_a8 + K_a5_a8 - 1229 m_a5_proc_0 - 1229 m_a8_proc_0 - u_a5
       - 471 y_a5_proc_0 >= -2458
 c244: K_a5_a8 + K_a8_a5 = 1
 c245: u_a5 + K_a8_a5 - 1229 m_a5_proc_0 - 1229 m_a8_proc_0 - u_a8
       - 985 y_a8_proc_0 >= -2458
 c246: K_a5_a8 + K_a8_a5 = 1
 c247: u_a9 + K_a5_a9 - 1229 m_a5_proc_0 - 1229 m_a9_proc_0 - u_a5
       - 471 y_a5_proc_0 >= -2458
 c248: u_a9 + K_a5_a9 - 1229 m_a5_proc_1 - 1229 m_a9_proc_1 - u_a5
       - 1229 y_a5_proc_1 >= -2458
 c249: K_a5_a9 + K_a9_a5 = 1
 c250: u_a5 + K_a9_a5 - 1229 m_a5_proc_0 - 1229 m_a9_proc_0 - u_a9
       - 1154 y_a9_proc_0 >= -2458
 c251: u_a5 + K_a9_a5 - 1229 m_a5_proc_1 - 1229 m_a9_proc_1 - u_a9
       - 963 y_a9_proc_1 >= -2458
 c252: K_a5_a9 + K_a9_a5 = 1
 c253: u_a7 + K_a6_a7 - 1229 m_a6_proc_0 - 1229 m_a7_proc_0 - u_a6
       - 601 y_a6_proc_0 >= -2458
 c254: K_a6_a7 + K_a7_a6 = 1
 c255: u_a6 + K_a7_a6 - 1229 m_a6_proc_0 - 1229 m_a7_proc_0 - u_a7
       - 782 y_a7_proc_0 >= -2458
 c256: K_a6_a7 + K_a7_a6 = 1
 c257: u_a8 + K_a6_a8 - 1229 m_a6_proc_0 - 1229 m_a8_proc_0 - u_a6
       - 601 y_a6_proc_0 >= -2458
 c258: K_a6_a8 + K_a8_a6 = 1
 c259: u_a6 + K_a8_a6 - 1229 m_a6_proc_0 - 1229 m_a8_proc_0 - u_a8
       - 985 y_a8_proc_0 >= -2458
 c260: K_a6_a8 + K_a8_a6 = 1
 c261: u_a9 + K_a6_a9 - 1229 m_a6_proc_0 - 1229 m_a9_proc_0 - u_a6
       - 601 y_a6_proc_0 >= -2458
 c262: K_a6_a9 + K_a9_a6 = 1
 c263: u_a6 + K_a9_a6 - 1229 m_a6_proc_0 - 1229 m_a9_proc_0 - u_a9
       - 1154 y_a9_proc_0 >= -2458
 c264: K_a6_a9 + K_a9_a6 = 1
 c265: u_a8 + K_a7_a8 - 1229 m_a7_proc_0 - 1229 m_a8_proc_0 - u_a7
       - 782 y_a7_proc_0 >= -2458
 c266: K_a7_a8 + K_a8_a7 = 1
 c267: u_a7 + K_a8_a7 - 1229 m_a7_proc_0 - 1229 m_a8_proc_0 - u_a8
       - 985 y_a8_proc_0 >= -2458
 c268: K_a7_a8 + K_a8_a7 = 1
 c269: u_a9 + K_a7_a9 - 1229 m_a7_proc_0 - 1229 m_a9_proc_0 - u_a7
       - 782 y_a7_proc_0 >= -2458
 c270: K_a7_a9 + K_a9_a7 = 1
 c271: u_a7 + K_a9_a7 - 1229 m_a7_proc_0 - 1229 m_a9_proc_0 - u_a9
       - 1154 y_a9_proc_0 >= -2458
 c272: K_a7_a9 + K_a9_a7 = 1
 c273: u_a9 + K_a8_a9 - 1229 m_a8_proc_0 - 1229 m_a9_proc_0 - u_a8
       - 985 y_a8_proc_0 >= -2458
 c274: K_a8_a9 + K_a9_a8 = 1
 c275: u_a8 + K_a9_a8 - 1229 m_a8_proc_0 - 1229 m_a9_proc_0 - u_a9
       - 1154 y_a9_proc_0 >= -2458
 c276: K_a8_a9 + K_a9_a8 = 1

Bounds
       K_a0_a1 Free
       K_a0_a2 Free
       K_a0_a3 Free
       K_a0_a4 Free
       K_a0_a5 Free
       K_a0_a6 Free
       K_a0_a7 Free
       K_a0_a8 Free
       K_a0_a9 Free
       K_a1_a0 Free
       K_a1_a2 Free
       K_a1_a3 Free
       K_a1_a4 Free
       K_a1_a5 Free
       K_a1_a6 Free
       K_a1_a7 Free
       K_a1_a8 Free
       K_a1_a9 Free
       K_a2_a0 Free
       K_a2_a1 Free
       K_a2_a3 Free
       K_a2_a4 Free
       K_a2_a5 Free
       K_a2_a6 Free
       K_a2_a7 Free
       K_a2_a8 Free
       K_a2_a9 Free
       K_a3_a0 Free
       K_a3_a1 Free
       K_a3_a2 Free
       K_a3_a4 Free
       K_a3_a5 Free
       K_a3_a6 Free
       K_a3_a7 Free
       K_a3_a8 Free
       K_a3_a9 Free
       K_a4_a0 Free
       K_a4_a1 Free
       K_a4_a2 Free
       K_a4_a3 Free
       K_a4_a5 Free
       K_a4_a6 Free
       K_a4_a7 Free
       K_a4_a8 Free
       K_a4_a9 Free
       K_a5_a0 Free
       K_a5_a1 Free
       K_a5_a2 Free
       K_a5_a3 Free
       K_a5_a4 Free
       K_a5_a6 Free
       K_a5_a7 Free
       K_a5_a8 Free
       K_a5_a9 Free
       K_a6_a0 Free
       K_a6_a1 Free
       K_a6_a2 Free
       K_a6_a3 Free
       K_a6_a4 Free
       K_a6_a5 Free
       K_a6_a7 Free
       K_a6_a8 Free
       K_a6_a9 Free
       K_a7_a0 Free
       K_a7_a1 Free
       K_a7_a2 Free
       K_a7_a3 Free
       K_a7_a4 Free
       K_a7_a5 Free
       K_a7_a6 Free
       K_a7_a8 Free
       K_a7_a9 Free
       K_a8_a0 Free
       K_a8_a1 Free
       K_a8_a2 Free
       K_a8_a3 Free
       K_a8_a4 Free
       K_a8_a5 Free
       K_a8_a6 Free
       K_a8_a7 Free
       K_a8_a9 Free
       K_a9_a0 Free
       K_a9_a1 Free
       K_a9_a2 Free
       K_a9_a3 Free
       K_a9_a4 Free
       K_a9_a5 Free
       K_a9_a6 Free
       K_a9_a7 Free
       K_a9_a8 Free
 0 <= m_a0_proc_0 <= 1
 0 <= m_a0_proc_1 <= 1
 0 <= m_a1_proc_0 <= 1
 0 <= m_a1_proc_1 <= 1
 0 <= m_a2_proc_0 <= 1
 0 <= m_a2_proc_1 <= 1
 0 <= m_a3_proc_0 <= 1
 0 <= m_a4_proc_0 <= 1
 0 <= m_a5_proc_0 <= 1
 0 <= m_a5_proc_1 <= 1
 0 <= m_a6_proc_0 <= 1
 0 <= m_a7_proc_0 <= 1
 0 <= m_a8_proc_0 <= 1
 0 <= m_a9_proc_0 <= 1
 0 <= m_a9_proc_1 <= 1

Binaries
 m_a0_proc_0 m_a0_proc_1 m_a1_proc_0 m_a1_proc_1 m_a2_proc_0 m_a2_proc_1
 m_a3_proc_0 m_a4_proc_0 m_a5_proc_0 m_a5_proc_1 m_a6_proc_0 m_a7_proc_0
 m_a8_proc_0 m_a9_proc_0 m_a9_proc_1

Generals
 K_a0_a1 K_a0_a2 K_a0_a3 K_a0_a4 K_a0_a5 K_a0_a6 K_a0_a7 K_a0_a8 K_a0_a9 K_a1_a0
 K_a1_a2 K_a1_a3 K_a1_a4 K_a1_a5 K_a1_a6 K_a1_a7 K_a1_a8 K_a1_a9 K_a2_a0 K_a2_a1
 K_a2_a3 K_a2_a4 K_a2_a5 K_a2_a6 K_a2_a7 K_a2_a8 K_a2_a9 K_a3_a0 K_a3_a1 K_a3_a2
 K_a3_a4 K_a3_a5 K_a3_a6 K_a3_a7 K_a3_a8 K_a3_a9 K_a4_a0 K_a4_a1 K_a4_a2 K_a4_a3
 K_a4_a5 K_a4_a6 K_a4_a7 K_a4_a8 K_a4_a9 K_a5_a0 K_a5_a1 K_a5_a2 K_a5_a3 K_a5_a4
 K_a5_a6 K_a5_a7 K_a5_a8 K_a5_a9 K_a6_a0 K_a6_a1 K_a6_a2 K_a6_a3 K_a6_a4 K_a6_a5
 K_a6_a7 K_a6_a8 K_a6_a9 K_a7_a0 K_a7_a1 K_a7_a2 K_a7_a3 K_a7_a4 K_a7_a5 K_a7_a6
 K_a7_a8 K_a7_a9 K_a8_a0 K_a8_a1 K_a8_a2 K_a8_a3 K_a8_a4 K_a8_a5 K_a8_a6 K_a8_a7
 K_a8_a9 K_a9_a0 K_a9_a1 K_a9_a2 K_a9_a3 K_a9_a4 K_a9_a5 K_a9_a6 K_a9_a7 K_a9_a8
End
