benchmark/results/graph__10-1000-0.10-02_15/graph__10-1000-0.10-02_15_Quinton_Monolithic.txt
solution for: Quinton Monolithic
objective: 0.0002096
status: FEASIBLE_SOLUTION(1)
u_a0=0.393
u_a1=1.000
u_a2=0.228
u_a3=0.600
u_a4=0.453
u_a5=0.228
u_a6=0.327
u_a7=0.836
u_a9=0.634
tau=0.000
K_a0_a2=1
K_a0_a3=-1229
K_a0_a4=-1229
K_a0_a5=-1228
K_a0_a6=-1228
K_a0_a7=-1229
K_a0_a8=-1228
K_a1_a0=1
K_a1_a2=1
K_a1_a3=-1228
K_a1_a4=-1228
K_a1_a5=1
K_a1_a6=-1228
K_a1_a7=-1228
K_a1_a8=-1228
K_a1_a9=1
K_a2_a3=-1229
K_a2_a4=-1229
K_a2_a5=1
K_a2_a6=-1229
K_a2_a7=-1229
K_a2_a8=-1228
K_a3_a0=1230
K_a3_a1=1229
K_a3_a2=1230
K_a3_a4=1
K_a3_a5=1
K_a3_a6=1
K_a3_a8=1
K_a3_a9=-1228
K_a4_a0=1230
K_a4_a1=1229
K_a4_a2=1230
K_a4_a5=1
K_a4_a6=1
K_a4_a8=1
K_a4_a9=-1229
K_a5_a0=1229
K_a5_a8=1
K_a5_a9=1
K_a6_a0=1229
K_a6_a1=1229
K_a6_a2=1230
K_a6_a5=1
K_a6_a8=1
K_a6_a9=-1228
K_a7_a0=1230
K_a7_a1=1229
K_a7_a2=1230
K_a7_a3=1
K_a7_a4=1
K_a7_a5=1
K_a7_a6=1
K_a7_a8=1
K_a7_a9=-1228
K_a8_a0=1229
K_a8_a1=1229
K_a8_a2=1229
K_a8_a9=-1229
K_a9_a0=1
K_a9_a2=1
K_a9_a3=1229
K_a9_a4=1230
K_a9_a6=1229
K_a9_a7=1229
K_a9_a8=1230
m_a0_proc_1=1
m_a1_proc_1=1
m_a2_proc_1=1
m_a3_proc_0=1
m_a4_proc_0=1
m_a5_proc_0=1
m_a6_proc_0=1
m_a7_proc_0=1
m_a8_proc_0=1
m_a9_proc_1=1
y_a0_proc_1=0.000
y_a1_proc_1=0.000
y_a2_proc_1=0.000
y_a3_proc_0=0.000
y_a4_proc_0=0.000
y_a5_proc_0=0.000
y_a6_proc_0=0.000
y_a7_proc_0=0.000
y_a8_proc_0=0.000
y_a9_proc_1=0.000
